<number of tasks>
50

<cycle time>
1000

<order strength>
0.598


<task times>
1 34
2 116
3 48
4 37
5 427
6 485
7 194
8 183
9 443
10 253
11 37
12 51
13 112
14 22
15 303
16 560
17 440
18 203
19 89
20 152
21 85
22 149
23 534
24 225
25 310
26 249
27 404
28 127
29 37
30 146
31 566
32 218
33 56
34 528
35 354
36 305
37 532
38 156
39 317
40 49
41 217
42 26
43 549
44 74
45 199
46 196
47 153
48 518
49 54
50 130

<precedence relations>
1,8
2,10
3,7
3,9
3,11
3,13
4,11
4,12
4,13
5,11
5,12
5,13
6,11
6,12
6,13
7,14
8,15
9,17
10,16
11,18
11,19
11,20
12,18
12,20
13,18
13,19
13,20
14,24
15,21
16,22
17,23
18,24
19,24
19,25
20,24
21,26
22,28
23,27
24,28
24,29
25,28
26,30
27,32
28,33
28,34
29,31
29,33
29,34
30,36
31,35
32,36
33,36
33,37
33,38
34,39
35,39
36,39
36,40
37,45
37,50
38,39
38,40
39,41
39,42
39,43
40,43
41,44
41,45
43,46
44,47
45,48
45,49
46,50

<end>
